# Objective value = 2.9295590686514367e+02
x[0] 1
x[1] 1
x[2] 1
x[3] 0
x[4] 0
x[5] 1
x[6] 1
x[7] 1
x[8] 1
x[9] 0
x[10] 0
x[11] 0
x[12] 1
x[13] 0
x[14] 1
x[15] 0
x[16] 0
x[17] 0
x[18] 0
x[19] 1
x[20] 0
x[21] 0
x[22] 0
x[23] 1
x[24] 0
x[25] 0
x[26] 1
x[27] 0
x[28] 1
x[29] 1
x[30] 1
x[31] 0
x[32] 0
x[33] 0
x[34] 0
x[35] 1
x[36] 0
x[37] 1
x[38] 0
x[39] 0
x[40] 1
x[41] 1
x[42] 1
x[43] 1
x[44] 0
x[45] 1
x[46] 1
x[47] 0
x[48] 0
x[49] 0
x[50] 1
x[51] 0
x[52] 0
x[53] 1
x[54] 1
x[55] 1
x[56] 0
x[57] 1
x[58] 1
x[59] 1
x[60] 1
x[61] 1
x[62] 0
x[63] 1
x[64] 0
x[65] 1
x[66] 1
x[67] 1
x[68] 1
x[69] 0
x[70] 0
x[71] 0
x[72] 0
x[73] 1
x[74] 0
x[75] 0
x[76] 1
x[77] 1
x[78] 1
x[79] 1
x[80] 0
x[81] 0
x[82] 1
x[83] 0
x[84] 1
x[85] 0
x[86] 0
x[87] 0
x[88] 0
x[89] 0
x[90] 1
x[91] 0
x[92] 0
x[93] 0
x[94] 1
x[95] 1
x[96] 0
x[97] 0
x[98] 1
x[99] 0
x[100] 1
x[101] 0
x[102] 1
x[103] 1
x[104] 0
x[105] 1
x[106] 0
x[107] 1
x[108] 1
x[109] 1
x[110] 1
x[111] 0
x[112] 0
x[113] 1
x[114] 0
x[115] 1
x[116] 1
x[117] 1
x[118] 0
x[119] 0
x[120] 1
x[121] 0
x[122] 0
x[123] 1
x[124] 0
x[125] 1
x[126] 0
x[127] 0
x[128] 0
x[129] 1
x[130] 0
x[131] 1
x[132] 0
x[133] 1
x[134] 0
x[135] 0
x[136] 1
x[137] 0
x[138] 0
x[139] 1
x[140] 0
x[141] 0
x[142] 0
x[143] 0
x[144] 0
x[145] 0
x[146] 0
x[147] 0
x[148] 1
x[149] 0
x[150] 0
x[151] 0
x[152] 1
x[153] 1
x[154] 0
x[155] 0
x[156] 1
x[157] 1
x[158] 0
x[159] 1
x[160] 0
x[161] 1
x[162] 1
x[163] 0
x[164] 0
x[165] 0
x[166] 1
x[167] 1
x[168] 1
x[169] 0
x[170] 0
x[171] 0
x[172] 0
x[173] 1
x[174] 0
x[175] 1
x[176] 1
x[177] 1
x[178] 0
x[179] 0
x[180] 1
x[181] 0
x[182] 1
x[183] 0
x[184] 1
x[185] 0
x[186] 0
x[187] 1
x[188] 1
x[189] 0
x[190] 1
x[191] 1
x[192] 0
x[193] 1
x[194] 1
x[195] 1
x[196] 1
x[197] 0
x[198] 1
x[199] 0
x[200] 1
x[201] 0
x[202] 0
x[203] 0
x[204] 1
x[205] 1
x[206] 1
x[207] 0
x[208] 1
x[209] 0
x[210] 1
x[211] 1
x[212] 0
x[213] 1
x[214] 0
x[215] 0
x[216] 1
x[217] 1
x[218] 1
x[219] 1
x[220] 0
x[221] 0
x[222] 1
x[223] 0
x[224] 0
x[225] 1
x[226] 1
x[227] 1
x[228] 1
x[229] 0
x[230] 0
x[231] 1
x[232] 0
x[233] 0
x[234] 0
x[235] 1
x[236] 1
x[237] 1
x[238] 1
x[239] 1
x[240] 0
x[241] 1
x[242] 0
x[243] 0
x[244] 0
x[245] 0
x[246] 1
x[247] 0
x[248] 0
x[249] 0
x[250] 1
x[251] 0
x[252] 0
x[253] 0
x[254] 1
x[255] 0
x[256] 1
x[257] 1
x[258] 1
x[259] 0
x[260] 1
x[261] 0
x[262] 1
x[263] 0
x[264] 1
x[265] 0
x[266] 0
x[267] 0
x[268] 0
x[269] 0
x[270] 0
x[271] 1
x[272] 1
x[273] 1
x[274] 0
x[275] 1
x[276] 0
x[277] 1
x[278] 1
x[279] 0
x[280] 0
x[281] 0
x[282] 0
x[283] 1
x[284] 1
x[285] 0
x[286] 0
x[287] 0
x[288] 0
x[289] 1
x[290] 1
x[291] 1
x[292] 1
x[293] 0
x[294] 1
x[295] 0
x[296] 1
x[297] 0
x[298] 0
x[299] 1
x[300] 1
x[301] 0
x[302] 0
x[303] 0
x[304] 1
x[305] 1
x[306] 1
x[307] 0
x[308] 1
x[309] 0
x[310] 0
x[311] 0
x[312] 1
x[313] 0
x[314] 0
x[315] 0
x[316] 1
x[317] 0
x[318] 1
x[319] 1
x[320] 0
x[321] 0
x[322] 0
x[323] 0
x[324] 1
x[325] 0
x[326] 0
x[327] 1
x[328] 0
x[329] 1
x[330] 0
x[331] 0
x[332] 0
x[333] 1
x[334] 0
x[335] 0
x[336] 0
x[337] 0
x[338] 0
x[339] 1
x[340] 0
x[341] 0
x[342] 1
x[343] 0
x[344] 0
x[345] 1
x[346] 0
x[347] 0
x[348] 0
x[349] 0
x[350] 0
x[351] 1
x[352] 1
x[353] 1
x[354] 1
x[355] 0
x[356] 1
x[357] 1
x[358] 1
x[359] 0
x[360] 1
x[361] 1
x[362] 0
x[363] 0
x[364] 0
x[365] 0
x[366] 0
x[367] 1
x[368] 0
x[369] 1
x[370] 0
x[371] 0
x[372] 1
x[373] 1
x[374] 1
x[375] 1
x[376] 1
x[377] 0
x[378] 0
x[379] 0
x[380] 0
x[381] 0
x[382] 0
x[383] 0
x[384] 1
x[385] 0
x[386] 1
x[387] 0
x[388] 1
x[389] 0
x[390] 1
x[391] 1
x[392] 1
x[393] 0
x[394] 1
x[395] 1
x[396] 0
x[397] 0
x[398] 1
x[399] 1
x[400] 1
x[401] 0
x[402] 0
x[403] 1
x[404] 0
x[405] 0
x[406] 1
x[407] 1
x[408] 1
x[409] 0
x[410] 0
x[411] 0
x[412] 1
x[413] 1
x[414] 1
x[415] 1
x[416] 1
x[417] 1
x[418] 0
x[419] 0
x[420] 0
x[421] 0
x[422] 0
x[423] 1
x[424] 0
x[425] 0
x[426] 0
x[427] 0
x[428] 0
x[429] 0
x[430] 0
x[431] 1
x[432] 1
x[433] 0
x[434] 0
x[435] 0
x[436] 1
x[437] 1
x[438] 1
x[439] 0
x[440] 0
x[441] 0
x[442] 1
x[443] 0
x[444] 1
x[445] 0
x[446] 1
x[447] 0
x[448] 1
x[449] 0
x[450] 0
x[451] 1
x[452] 0
x[453] 0
x[454] 0
x[455] 1
x[456] 1
x[457] 1
x[458] 1
x[459] 1
x[460] 1
x[461] 1
x[462] 1
x[463] 1
x[464] 0
x[465] 0
x[466] 0
x[467] 0
x[468] 1
x[469] 1
x[470] 1
x[471] 1
x[472] 1
x[473] 0
x[474] 1
x[475] 0
x[476] 0
x[477] 0
x[478] 0
x[479] 0
x[480] 0
x[481] 1
x[482] 0
x[483] 0
x[484] 1
x[485] 1
x[486] 0
x[487] 0
x[488] 0
x[489] 1
x[490] 1
x[491] 0
x[492] 0
x[493] 1
x[494] 1
x[495] 1
x[496] 0
x[497] 0
x[498] 1
x[499] 1
x[500] 0
x[501] 0
x[502] 0
x[503] 0
x[504] 1
x[505] 0
x[506] 0
x[507] 1
x[508] 1
x[509] 0
x[510] 1
x[511] 0
x[512] 1
x[513] 1
x[514] 0
x[515] 1
x[516] 0
x[517] 1
x[518] 0
x[519] 1
x[520] 0
x[521] 0
x[522] 1
x[523] 0
x[524] 0
x[525] 1
x[526] 0
x[527] 0
x[528] 0
x[529] 0
x[530] 1
x[531] 0
x[532] 1
x[533] 1
x[534] 0
x[535] 1
x[536] 1
x[537] 1
x[538] 0
x[539] 0
x[540] 1
x[541] 1
x[542] 0
x[543] 1
x[544] 1
x[545] 1
x[546] 0
x[547] 0
x[548] 1
x[549] 0
x[550] 1
x[551] 1
x[552] 0
x[553] 1
x[554] 1
x[555] 1
x[556] 1
x[557] 0
x[558] 0
x[559] 0
x[560] 1
x[561] 1
x[562] 0
x[563] 0
x[564] 1
x[565] 0
x[566] 1
x[567] 1
x[568] 1
x[569] 1
x[570] 1
x[571] 1
x[572] 1
x[573] 1
x[574] 1
x[575] 0
x[576] 0
x[577] 1
x[578] 0
x[579] 0
x[580] 0
x[581] 1
x[582] 1
x[583] 1
x[584] 0
x[585] 0
x[586] 0
x[587] 0
x[588] 0
x[589] 1
x[590] 1
x[591] 0
x[592] 0
x[593] 0
x[594] 0
x[595] 1
x[596] 0
x[597] 0
x[598] 0
x[599] 1
x[600] 0
x[601] 1
x[602] 0
x[603] 1
x[604] 1
x[605] 0
x[606] 0
x[607] 0
x[608] 0
x[609] 0
x[610] 0
x[611] 0
x[612] 1
x[613] 1
x[614] 1
x[615] 0
x[616] 1
x[617] 1
x[618] 1
x[619] 0
x[620] 0
x[621] 1
x[622] 0
x[623] 0
x[624] 1
x[625] 0
x[626] 0
x[627] 1
x[628] 0
x[629] 0
x[630] 0
x[631] 1
x[632] 1
x[633] 1
x[634] 0
x[635] 0
x[636] 1
x[637] 1
x[638] 1
x[639] 1
x[640] 1
x[641] 0
x[642] 0
x[643] 1
x[644] 0
x[645] 0
x[646] 0
x[647] 1
x[648] 0
x[649] 0
x[650] 0
x[651] 0
x[652] 0
x[653] 0
x[654] 1
x[655] 1
x[656] 0
x[657] 1
x[658] 1
x[659] 1
x[660] 1
x[661] 1
x[662] 1
x[663] 1
x[664] 0
x[665] 1
x[666] 1
x[667] 1
x[668] 1
x[669] 1
x[670] 0
x[671] 0
x[672] 0
x[673] 0
x[674] 1
x[675] 0
x[676] 0
x[677] 0
x[678] 1
x[679] 0
x[680] 1
x[681] 0
x[682] 1
x[683] 0
x[684] 0
x[685] 1
x[686] 1
x[687] 0
x[688] 1
x[689] 0
x[690] 0
x[691] 0
x[692] 1
x[693] 1
x[694] 0
x[695] 0
x[696] 0
x[697] 1
x[698] 0
x[699] 1
x[700] 1
x[701] 1
x[702] 1
x[703] 0
x[704] 0
x[705] 1
x[706] 1
x[707] 0
x[708] 1
x[709] 0
x[710] 1
x[711] 0
x[712] 1
x[713] 0
x[714] 0
x[715] 0
x[716] 1
x[717] 0
x[718] 1
x[719] 1
x[720] 0
x[721] 1
x[722] 0
x[723] 0
x[724] 1
x[725] 1
x[726] 1
x[727] 0
x[728] 0
x[729] 0
x[730] 0
x[731] 1
x[732] 1
x[733] 1
x[734] 0
x[735] 1
x[736] 1
x[737] 1
x[738] 1
x[739] 1
x[740] 0
x[741] 1
x[742] 0
x[743] 0
x[744] 1
x[745] 0
x[746] 1
x[747] 0
x[748] 1
x[749] 1
x[750] 1
x[751] 0
x[752] 0
x[753] 1
x[754] 1
x[755] 1
x[756] 0
x[757] 0
x[758] 1
x[759] 1
x[760] 0
x[761] 0
x[762] 0
x[763] 0
x[764] 1
x[765] 0
x[766] 0
x[767] 1
x[768] 1
x[769] 0
x[770] 0
x[771] 0
x[772] 0
x[773] 1
x[774] 0
x[775] 1
x[776] 0
x[777] 1
x[778] 0
x[779] 0
x[780] 0
x[781] 1
x[782] 0
x[783] 1
x[784] 1
x[785] 1
x[786] 1
x[787] 0
x[788] 1
x[789] 0
x[790] 1
x[791] 0
x[792] 1
x[793] 1
x[794] 1
x[795] 1
x[796] 0
x[797] 0
x[798] 1
x[799] 0
x[800] 0
x[801] 1
x[802] 1
x[803] 1
x[804] 0
x[805] 0
x[806] 0
x[807] 0
x[808] 0
x[809] 0
x[810] 0
x[811] 0
x[812] 1
x[813] 1
x[814] 1
x[815] 1
x[816] 1
x[817] 0
x[818] 0
x[819] 1
x[820] 0
x[821] 0
x[822] 0
x[823] 1
x[824] 0
x[825] 1
x[826] 1
x[827] 1
x[828] 1
x[829] 0
x[830] 1
x[831] 0
x[832] 0
x[833] 0
x[834] 1
x[835] 1
x[836] 0
x[837] 1
x[838] 1
x[839] 1
x[840] 0
x[841] 1
x[842] 0
x[843] 1
x[844] 1
x[845] 1
x[846] 0
x[847] 1
x[848] 0
x[849] 0
x[850] 0
x[851] 1
x[852] 0
x[853] 1
x[854] 1
x[855] 0
x[856] 0
x[857] 0
x[858] 1
x[859] 0
x[860] 1
x[861] 0
x[862] 1
x[863] 0
x[864] 0
x[865] 0
x[866] 0
x[867] 0
x[868] 0
x[869] 0
x[870] 1
x[871] 1
x[872] 0
x[873] 0
x[874] 0
x[875] 0
x[876] 0
x[877] 0
x[878] 0
x[879] 0
x[880] 0
x[881] 0
x[882] 0
x[883] 0
x[884] 1
x[885] 0
x[886] 1
x[887] 0
x[888] 1
x[889] 1
x[890] 0
x[891] 1
x[892] 1
x[893] 1
x[894] 0
x[895] 1
x[896] 0
x[897] 1
x[898] 0
x[899] 0
x[900] 1
x[901] 0
x[902] 0
x[903] 1
x[904] 0
x[905] 0
x[906] 0
x[907] 0
x[908] 0
x[909] 0
x[910] 1
x[911] 1
x[912] 0
x[913] 1
x[914] 1
x[915] 1
x[916] 1
x[917] 0
x[918] 0
x[919] 0
x[920] 0
x[921] 0
x[922] 1
x[923] 1
x[924] 0
x[925] 0
x[926] 1
x[927] 0
x[928] 0
x[929] 0
x[930] 1
x[931] 1
x[932] 1
x[933] 1
x[934] 1
x[935] 1
x[936] 1
x[937] 1
x[938] 0
x[939] 0
x[940] 0
x[941] 1
x[942] 0
x[943] 1
x[944] 0
x[945] 1
x[946] 0
x[947] 0
x[948] 0
x[949] 0
x[950] 0
x[951] 1
x[952] 1
x[953] 0
x[954] 1
x[955] 0
x[956] 0
x[957] 1
x[958] 1
x[959] 1
x[960] 1
x[961] 0
x[962] 0
x[963] 1
x[964] 1
x[965] 0
x[966] 1
x[967] 1
x[968] 0
x[969] 1
x[970] 0
x[971] 1
x[972] 1
x[973] 1
x[974] 0
x[975] 1
x[976] 0
x[977] 1
x[978] 1
x[979] 0
x[980] 0
x[981] 0
x[982] 1
x[983] 1
x[984] 1
x[985] 1
x[986] 1
x[987] 0
x[988] 1
x[989] 1
x[990] 0
x[991] 1
x[992] 1
x[993] 0
x[994] 0
x[995] 0
x[996] 1
x[997] 0
x[998] 0
x[999] 1
